num_offers = 35;
num_halls = 10;
start=[13,28,46,53,18,32,64,76,43,42,8,59,9,60,48,58,28,54,52,69,9,43,36,47,2,50,62,33,36,28,68,53,69,30,16];
end=[44,72,78,95,23,82,86,94,48,97,90,97,27,85,84,71,83,90,72,80,99,68,90,82,32,83,97,80,100,39,87,71,95,87,30];
price=[3133,4409,371,916,264,2762,891,312,194,3353,3092,1011,1219,651,1739,907,4220,687,883,969,4725,2205,1776,2871,2283,1732,2590,1994,5447,1103,1426,984,2672,915,208];
requirement=[905,218,874,696,662,999,651,202,450,450,379,241,916,252,525,595,889,247,818,210,839,869,569,973,750,268,821,516,753,442,602,291,789,562,269];
capacity=[999,956,473,424,994,820,213,203,364,440];
